NAME: archivos10
TYPE: TSP
COMMENT: 10-Staedte in archivos10 (Zaw Win)
DIMENSION: 10
EDGE_WEIGHT_TYPE: GEO
EDGE_WEIGHT_FORMAT: FUNCTION
DISPLAY_DATA_TYPE: COORD_DISPLAY
NODE_COORD_SECTION
1 1.00 379.00
2 1.00 61.00
3 1.00 217.00
4 1.00 102.00
5 1.00 98.00
6 1.00 79.00
7 1.00 13.00
8 1.00 43.00
9 1.00 30.00
10 1.00 1.00
EOF